Optimal - objective value 10.00000000
      0 C0000000               4                      -0
      1 C0000001               9                      -0
      2 C0000002               0                      -0
      0 X0000000               1                      10
      1 X0000001               1                       0
